500
750
600
597
593
592
592
590
590
590
588
587
587
587
586
586
585
584
583
583
583
583
582
582
582
582
580
579
579
578
577
577
575
574
574
574
574
573
572
570
569
569
568
568
567
567
567
566
566
565
564
562
562
560
560
558
558
556
555
554
553
552
552
552
551
551
550
550
549
549
549
546
546
546
543
542
541
541
538
537
536
536
535
534
531
531
530
530
528
528
524
522
522
521
520
519
519
519
518
517
517
517
516
514
513
513
512
511
511
511
510
509
508
506
506
505
505
503
501
500
500
500
497
497
497
496
496
496
496
494
494
494
494
492
492
490
490
489
489
487
487
487
486
486
483
481
480
479
477
477
476
475
474
474
473
473
472
472
470
469
468
468
468
467
467
466
465
465
465
465
465
462
462
461
460
458
457
457
457
457
457
456
455
453
453
452
452
450
449
448
447
445
445
445
445
444
444
444
444
443
442
437
435
435
432
432
431
429
429
429
429
428
427
427
426
426
424
424
423
422
421
420
420
417
416
415
414
411
410
410
409
409
409
409
404
404
404
403
403
403
401
401
400
399
398
398
396
395
394
393
390
390
383
383
382
381
380
380
380
376
375
375
374
373
373
371
370
368
367
364
363
363
362
361
360
360
359
358
357
357
356
355
354
354
354
354
354
352
352
351
351
350
350
350
349
348
348
346
346
345
344
342
341
340
338
337
337
337
337
333
333
333
332
330
330
330
329
329
325
325
325
323
322
321
321
320
320
320
318
318
316
314
313
311
311
308
308
307
307
303
300
300
297
296
296
296
293
293
293
291
291
290
287
287
287
285
285
284
284
283
282
282
281
280
279
278
278
278
277
277
277
277
276
276
274
273
273
273
271
268
267
267
265
265
265
262
260
259
259
258
258
258
257
255
254
251
250
248
248
248
245
244
243
243
242
241
241
240
240
239
239
236
235
235
234
233
232
230
229
229
228
228
226
226
225
225
224
224
223
222
219
218
217
217
216
216
212
211
210
209
209
208
208
208
208
206
206
206
206
203
203
202
202
201
201
199
197
196
194
194
194
191
191
186
183
182
181
180
178
177
175
174
171
170
169
169
169
167
167
167
167
167
166
166
165
165
163
162
161
161
160
159
158
155
155
154
153
152
152
152
151
151
